# Test PreconLBFGS with hardcoded mu=10.0
# Same vacancy defect as auto_mu test for comparison

units metal
atom_style atomic

# Enable atom map (required for preconditioner)
atom_modify map yes

# Create FCC Cu lattice
lattice fcc 3.615
region box block 0 4 0 4 0 4
create_box 1 box
create_atoms 1 box
mass 1 63.546

# Delete one atom to create vacancy defect
group center id 136
delete_atoms group center

# EAM potential for Cu
pair_style eam
pair_coeff * * /home/eng/essswb/lammps/lammps-22Jul2025/potentials/Cu_u3.eam

# Neighbor settings
neighbor 2.0 bin
neigh_modify delay 0 every 1 check yes

# Load plugin
plugin load /home/eng/essswb/lammps-precon-opt-fix/build/preconlbfgsplugin.so

# Use PreconLBFGS with hardcoded mu=10.0
fix opt all precon_lbfgs 0.01 precon exp r_cut -1.0 mu 10.0 A 3.0 c_stab 0.1 memory 50 maxstep 0.04

thermo 1
thermo_style custom step pe fmax fnorm

# Minimize
minimize 0.0 0.01 100 1000

# Cleanup
unfix opt
