106
comment="acceptable_n_violating 0 nn 8-8 0 nn 8-13 2 nn 13-8 4 nn 13-13 5" cutoff_factor=1.20000000 nneightol=1.20000000 Lattice="7.90999985       0.00000000       0.00000000       0.00000000       7.90999985       0.00000000       0.00000000       0.00000000      15.81999970" Properties=species:S:1:pos:R:3:Z:I:1:label:S:1:map_shift:I:3:n_neighb:I:1
O               4.98092694      1.02592702      2.92907290       8 O               -1       0       0       3
O               1.02592702      2.92907290      4.98092694       8 O                0       0       0       3
O               2.92907290      4.98092694      1.02592702       8 O                0      -1       0       4
O               0.95157294      4.90657287      6.95842691       8 O                0      -1       0       3
O               4.90657287      6.95842691      0.95157294       8 O               -1      -1       0       4
O               6.95842691      0.95157294      4.90657287       8 O               -1       0       0       4
O               3.00342698      6.95842691      6.95842691       8 O                0      -1       0       4
O               4.90657287      4.90657287      3.00342698       8 O               -1      -1       0       3
O               3.00342698      3.00342698     10.91342683       8 O                0       0      -1       3
O               4.90657287      0.95157294     14.86842676       8 O               -1       0      -1       4
O               0.95157294      6.95842691     12.81657272       8 O                0      -1      -1       4
O               6.95842691      4.90657287      8.86157279       8 O               -1      -1      -1       3
O               1.02592702      4.98092694     10.83907275       8 O                0      -1      -1       3
O               6.88407283      6.88407283     14.79407268       8 O               -1      -1      -1       4
O               4.98092694      2.92907290      8.93592687       8 O               -1       0      -1       4
O               2.92907290      1.02592702     12.89092679       8 O                0       0      -1       3
O               4.98092694      1.02592702     10.83907275       8 O               -1       0      -1       3
O               1.02592702      2.92907290     12.89092679       8 O                0       0      -1       4
O               2.92907290      4.98092694      8.93592687       8 O                0      -1      -1       3
O               0.95157294      4.90657287     14.86842676       8 O                0      -1      -1       4
O               4.90657287      6.95842691      8.86157279       8 O               -1      -1      -1       4
O               6.95842691      0.95157294     12.81657272       8 O               -1       0      -1       4
O               3.00342698      6.95842691     14.86842676       8 O                0      -1      -1       4
O               4.90657287      4.90657287     10.91342683       8 O               -1      -1      -1       4
O               6.95842691      3.00342698      6.95842691       8 O               -1       0       0       4
O               3.00342698      4.90657287      4.90657287       8 O                0      -1       0       4
O               2.92907290      6.88407283      2.92907290       8 O                0      -1       0       4
O               6.88407283      1.02592702      1.02592702       8 O               -1       0       0       4
O               6.88407283      4.98092694      4.98092694       8 O               -1      -1       0       3
O               3.00342698      0.95157294      0.95157294       8 O                0       0       0       3
O               6.95842691      6.95842691      3.00342698       8 O               -1      -1       0       4
O               2.92907290      2.92907290      6.88407283       8 O                0       0       0       4
O               0.95157294      3.00342698      0.95157294       8 O                0       0       0       3
O               1.02592702      1.02592702      6.88407283       8 O                0       0       0       4
O               6.88407283      2.92907290      2.92907290       8 O               -1       0       0       2
O               4.98092694      6.88407283      4.98092694       8 O               -1      -1       0       4
O               4.98092694      4.98092694      6.88407283       8 O               -1      -1       0       4
O               1.02592702      6.88407283      1.02592702       8 O                0      -1       0       4
O               0.95157294      0.95157294      3.00342698       8 O                0       0       0       3
O               4.90657287      3.00342698      4.90657287       8 O               -1       0       0       3
O               0.95157294      3.00342698      8.86157279       8 O                0       0      -1       2
O               1.02592702      1.02592702     14.79407268       8 O                0       0      -1       4
O               6.88407283      2.92907290     10.83907275       8 O               -1       0      -1       4
O               4.98092694      6.88407283     12.89092679       8 O               -1      -1      -1       3
O               4.98092694      4.98092694     14.79407268       8 O               -1      -1      -1       4
O               1.02592702      6.88407283      8.93592687       8 O                0      -1      -1       3
O               0.95157294      0.95157294     10.91342683       8 O                0       0      -1       3
O               4.90657287      3.00342698     12.81657272       8 O               -1       0      -1       4
O               6.95842691      3.00342698     14.86842676       8 O               -1       0      -1       4
O               3.00342698      4.90657287     12.81657272       8 O                0      -1      -1       4
O               2.92907290      6.88407283     10.83907275       8 O                0      -1      -1       3
O               6.88407283      1.02592702      8.93592687       8 O               -1       0      -1       4
O               6.88407283      4.98092694     12.89092679       8 O               -1      -1      -1       4
O               3.00342698      0.95157294      8.86157279       8 O                0       0      -1       3
O               6.95842691      6.95842691     10.91342683       8 O               -1      -1      -1       4
O               2.92907290      2.92907290     14.79407268       8 O                0       0      -1       4
O               3.00342698      3.00342698      3.00342698       8 O                0       0       0       2
O               4.90657287      0.95157294      6.95842691       8 O               -1       0       0       4
O               0.95157294      6.95842691      4.90657287       8 O                0      -1       0       4
O               6.95842691      4.90657287      0.95157294       8 O               -1      -1       0       4
O               1.02592702      4.98092694      2.92907290       8 O                0      -1       0       3
O               6.88407283      6.88407283      6.88407283       8 O               -1      -1       0       4
O               4.98092694      2.92907290      1.02592702       8 O               -1       0       0       3
O               2.92907290      1.02592702      4.98092694       8 O                0       0       0       4
Al              5.93249989      1.97749996      5.93249989      13 Al_8a           -1       0       0       4
Al              5.93249989      1.97749996     13.84249974      13 Al_8a           -1       0      -1       4
Al              0.00000000      3.95499992     11.86499977      13 Al_8a            0       0      -1       4
Al              3.95499992      0.00000000      3.95499992      13 Al_8a            0       0       0       4
Al              3.95499992      3.95499992      7.90999985      13 Al_8a            0       0      -1       4
Al              1.97749996      5.93249989      5.93249989      13 Al_8a            0      -1       0       4
Al              3.95499992      3.95499992      0.00000000      13 Al_8a            0       0       0       4
Al              5.93249989      5.93249989      9.88749981      13 Al_8a           -1      -1      -1       4
Al              1.97749996      5.93249989     13.84249974      13 Al_8a            0      -1      -1       4
Al              5.93249989      5.93249989      1.97749996      13 Al_8a           -1      -1       0       4
Al              0.00000000      0.00000000      7.90999985      13 Al_8a            0       0      -1       4
Al              0.00000000      0.00000000      0.00000000      13 Al_8a            0       0       0       4
Al              2.96624994      6.92124987      0.98874998      13 Al_16d           0      -1       0      12
Al              6.92124987      2.96624994      8.89874983      13 Al_16d          -1       0      -1      11
Al              2.96624994      2.96624994     12.85374975      13 Al_16d           0       0      -1      12
Al              2.96624994      4.94374990     10.87624979      13 Al_16d           0      -1      -1      11
Al              4.94374990      4.94374990     12.85374975      13 Al_16d          -1      -1      -1      12
Al              6.92124987      4.94374990      6.92124987      13 Al_16d          -1      -1       0      11
Al              6.92124987      4.94374990     14.83124972      13 Al_16d          -1      -1      -1      12
Al              2.96624994      0.98874998     14.83124972      13 Al_16d           0       0      -1      12
Al              4.94374990      2.96624994     10.87624979      13 Al_16d          -1       0      -1      12
Al              4.94374990      6.92124987      6.92124987      13 Al_16d          -1      -1       0      12
Al              0.98874998      6.92124987     10.87624979      13 Al_16d           0      -1      -1      11
Al              6.92124987      6.92124987      4.94374990      13 Al_16d          -1      -1       0      12
Al              2.96624994      0.98874998      6.92124987      13 Al_16d           0       0       0      12
Al              0.98874998      0.98874998     12.85374975      13 Al_16d           0       0      -1      12
Al              2.96624994      2.96624994      4.94374990      13 Al_16d           0       0       0      11
Al              0.98874998      2.96624994     14.83124972      13 Al_16d           0       0      -1      12
Al              0.98874998      4.94374990      0.98874998      13 Al_16d           0      -1       0      12
Al              2.96624994      6.92124987      8.89874983      13 Al_16d           0      -1      -1      11
Al              6.92124987      2.96624994      0.98874998      13 Al_16d          -1       0       0      11
Al              6.92124987      0.98874998     10.87624979      13 Al_16d          -1       0      -1      12
Al              2.96624994      4.94374990      2.96624994      13 Al_16d           0      -1       0      11
Al              4.94374990      0.98874998      0.98874998      13 Al_16d          -1       0       0      11
Al              0.98874998      2.96624994      6.92124987      13 Al_16d           0       0       0      11
Al              0.98874998      0.98874998      4.94374990      13 Al_16d           0       0       0      12
Al              4.94374990      0.98874998      8.89874983      13 Al_16d          -1       0      -1      12
Al              4.94374990      4.94374990      4.94374990      13 Al_16d          -1      -1       0      11
Al              4.94374990      6.92124987     14.83124972      13 Al_16d          -1      -1      -1      12
Al              6.92124987      6.92124987     12.85374975      13 Al_16d          -1      -1      -1      12
Al              6.92124987      0.98874998      2.96624994      13 Al_16d          -1       0       0      11
Al              0.98874998      6.92124987      2.96624994      13 Al_16d           0      -1       0      12
