432
phase="iceVIII" Lattice="13.65 0 0 0 13.65 0 0 0 13.1604" Properties=species:S:1:pos:R:3
O -0.026221 1.116607 0.759719
O -0.034779 1.146054 7.274686
O 0.031062 5.654853 0.723636
O -0.034814 5.674196 7.304512
O 0.041009 10.214026 0.764457
O -0.027965 10.250680 7.312446
O 4.533216 1.097945 0.725431
O 4.556739 1.172916 7.259352
O 4.510802 5.701440 0.676449
O 4.572018 5.647681 7.303633
O 4.525436 10.255170 0.764816
O 4.575990 10.259529 7.346100
O 9.142861 1.125266 0.765114
O 9.127888 1.119925 7.274761
O 9.149555 5.653630 0.745941
O 9.100152 5.731130 7.326970
O 9.060519 10.208420 0.731078
O 9.120543 10.195323 7.306391
O 2.244620 3.389921 4.029100
O 2.269821 3.366487 10.592165
O 2.232776 7.916310 3.981244
O 2.264783 7.981390 10.598911
O 2.293692 12.489746 4.011833
O 2.252656 12.507509 10.638947
O 6.783693 3.407889 4.059803
O 6.860572 3.374598 10.546856
O 6.798451 7.999131 4.008979
O 6.851955 7.999900 10.583133
O 6.869433 12.542349 4.049103
O 6.869666 12.521105 10.605356
O 11.356935 3.404616 4.055651
O 11.340846 3.446016 10.618634
O 11.374184 7.933713 3.977215
O 11.329836 7.955103 10.578018
O 11.335466 12.505392 4.027555
O 11.386870 12.540500 10.594243
O 0.048955 3.455085 2.384407
O 0.024736 3.458157 8.951987
O -0.027860 7.942463 2.401206
O -0.049364 7.940557 8.992307
O -0.013262 12.503225 2.407640
O 0.045226 12.561536 8.915430
O 4.554824 3.386213 2.397375
O 4.545877 3.435622 8.920106
O 4.547371 8.004880 2.406077
O 4.594580 7.952469 8.934921
O 4.520103 12.494701 2.353807
O 4.557069 12.506200 8.987829
O 9.114394 3.414294 2.409677
O 9.133920 3.426270 8.948023
O 9.092298 7.913404 2.381010
O 9.142755 7.947371 8.925671
O 9.091128 12.487144 2.418028
O 9.097022 12.530734 8.980600
O 2.310046 1.115149 5.670517
O 2.295693 1.101085 12.266389
O 2.262769 5.653269 5.674862
O 2.288527 5.693612 12.210820
O 2.320066 10.278223 5.652610
O 2.289460 10.281923 12.265929
O 6.851075 1.091632 5.706339
O 6.807787 1.161012 12.251453
O 6.831189 5.692725 5.680555
O 6.800089 5.686302 12.216477
O 6.846863 10.232485 5.674991
O 6.787072 10.191952 12.280828
O 11.409918 1.112387 5.669708
O 11.404521 1.099222 12.235829
O 11.327408 5.683607 5.643836
O 11.422940 5.687234 12.229712
O 11.348142 10.274412 5.644834
O 11.401843 10.265246 12.229056
O 2.256321 3.428692 0.961385
O 2.257601 3.419745 7.505194
O 2.227104 7.982838 0.920460
O 2.260594 7.975743 7.473582
O 2.319163 12.470247 0.953559
O 2.246416 12.499685 7.451869
O 6.840285 3.383897 0.911639
O 6.811793 3.390016 7.519948
O 6.809296 7.941219 0.874070
O 6.855233 7.996864 7.530525
O 6.788201 12.549213 0.917587
O 6.778864 12.521588 7.479465
O 11.379442 3.365744 0.899143
O 11.326094 3.408579 7.460892
O 11.347852 7.939804 0.887554
O 11.327560 7.939947 7.536977
O 11.391386 12.540608 0.893359
O 11.350854 12.534462 7.455620
O -0.046552 1.140683 4.252415
O -0.034453 1.089958 10.777213
O -0.036155 5.729092 4.190168
O 0.011479 5.665171 10.759355
O 0.001746 10.196490 4.224083
O 0.016177 10.224015 10.827273
O 4.522657 1.173400 4.169380
O 4.503532 1.098779 10.835136
O 4.516342 5.691027 4.215294
O 4.520569 5.679466 10.823903
O 4.520486 10.235502 4.177849
O 4.552134 10.268353 10.825221
O 9.115243 1.137108 4.190031
O 9.093222 1.117434 10.817820
O 9.131474 5.678062 4.229926
O 9.074358 5.665102 10.797042
O 9.107926 10.191506 4.174796
O 9.087638 10.252443 10.822795
O 2.310145 1.100092 2.614417
O 2.290843 1.131451 9.162558
O 2.318252 5.702714 2.585682
O 2.299170 5.664853 9.114918
O 2.260304 10.225262 2.589725
O 2.313610 10.267702 9.105520
O 6.846840 1.187011 2.533615
O 6.845401 1.166891 9.138624
O 6.784641 5.683656 2.548180
O 6.830877 5.679277 9.146307
O 6.829679 10.253458 2.575844
O 6.852226 10.218253 9.181198
O 11.331607 1.136073 2.547225
O 11.377751 1.088254 9.113752
O 11.395727 5.689080 2.551550
O 11.326834 5.688941 9.176623
O 11.349684 10.242119 2.547188
O 11.338702 10.241764 9.119340
O -0.001463 3.438639 5.838031
O 0.040898 3.457403 12.394949
O -0.002672 7.924770 5.899915
O 0.030001 8.005093 12.477311
O 0.007894 12.464345 5.874303
O 0.012495 12.490209 12.483691
O 4.572601 3.462454 5.824772
O 4.555016 3.455278 12.452803
O 4.556153 7.948855 5.851776
O 4.518555 7.930566 12.421982
O 4.507123 12.549014 5.835038
O 4.539620 12.548276 12.404255
O 9.124872 3.379149 5.872856
O 9.072475 3.450933 12.434578
O 9.076544 7.969797 5.848394
O 9.099941 8.011013 12.416039
O 9.133530 12.546784 5.807936
O 9.123603 12.487682 12.447033
H 0.013607 1.888788 1.353341
H -0.028805 1.949553 7.845072
H -0.028256 6.499748 1.257018
H -0.001275 6.448604 7.894866
H -0.001266 11.017377 1.310156
H -0.049346 10.986665 7.844810
H 4.587780 1.954113 1.329254
H 4.530318 1.905903 7.838436
H 4.563902 6.515350 1.346871
H 4.562642 6.486336 7.919337
H 4.537323 11.003841 1.354474
H 4.553797 11.063893 7.873898
H 9.105424 1.947230 1.267041
H 9.067334 1.877588 7.870857
H 9.123446 6.482962 1.335047
H 9.103090 6.493479 7.874565
H 9.110010 11.022183 1.354591
H 9.074305 11.055342 7.861966
H 2.299877 4.222130 4.551099
H 2.312699 4.220723 11.201989
H 2.273462 8.772384 4.582347
H 2.324023 8.712811 11.137712
H 2.256777 13.256330 4.562562
H 2.262376 13.262124 11.140702
H 6.837297 4.235902 4.591928
H 6.868731 4.186108 11.217825
H 6.866349 8.703014 4.558983
H 6.874834 8.778947 11.179761
H 6.857949 13.263852 4.563448
H 6.855420 13.320770 11.189201
H 11.349713 4.236049 4.616546
H 11.331939 4.185781 11.161815
H 11.413482 8.777375 4.562433
H 11.395927 8.743157 11.181758
H 11.396962 13.324550 4.556567
H 11.408083 13.291045 11.147652
H 3.787372 3.405851 2.982766
H 3.754656 3.451839 9.569180
H 3.725164 8.005506 2.919822
H 3.806579 7.978709 9.552458
H 3.771837 12.492560 2.906799
H 3.767140 12.489524 9.544521
H 8.325225 3.438036 2.987998
H 8.281655 3.387985 9.523197
H 8.342252 8.004376 2.907328
H 8.331506 7.967407 9.581985
H 8.357397 12.493505 2.923580
H 8.276809 12.479822 9.511456
H 12.842969 3.371916 2.963927
H 12.858756 3.422608 9.558706
H 12.870806 7.941576 2.993028
H 12.829621 7.915670 9.554866
H 12.893485 12.479266 2.953331
H 12.853693 12.481068 9.516151
H 1.443758 1.136915 6.196023
H 1.514765 1.139315 12.833631
H 1.483295 5.724340 6.199342
H 1.519734 5.661825 12.777390
H 1.484866 10.222945 6.214524
H 1.472709 10.214454 12.817076
H 6.026475 1.091424 6.266282
H 6.021139 1.149939 12.839537
H 6.009498 5.685262 6.202183
H 6.060428 5.684704 12.805502
H 6.039977 10.264201 6.209798
H 6.085070 10.275686 12.865815
H 10.600140 1.103788 6.208173
H 10.548590 1.128335 12.834714
H 10.614343 5.730405 6.214261
H 10.590250 5.698406 12.795133
H 10.606708 10.215556 6.196662
H 10.600488 10.278304 12.854131
H 3.109052 3.363482 0.361990
H 3.064733 3.432760 6.890132
H 3.072884 7.992712 0.302505
H 3.030522 7.981196 6.941161
H 3.059984 12.463058 0.350232
H 3.017784 12.555884 6.869168
H 7.642960 3.368544 0.299477
H 7.618600 3.455305 6.883771
H 7.610538 7.988752 0.309370
H 7.620103 7.975287 6.905511
H 7.630707 12.494406 0.387485
H 7.581241 12.530263 6.946388
H 12.160874 3.459338 0.318382
H 12.192616 3.420578 6.944317
H 12.183446 7.972892 0.342249
H 12.126647 7.944195 6.916310
H 12.168957 12.561052 0.349308
H 12.147909 12.492075 6.920278
H 0.739586 1.151752 3.665525
H 0.791393 1.170709 10.246410
H 0.785858 5.677922 3.600693
H 0.756426 5.658667 10.253455
H 0.784669 10.206188 3.618719
H 0.738283 10.269754 10.255058
H 5.302059 1.172016 3.635575
H 5.292238 1.094057 10.227086
H 5.361351 5.705994 3.647560
H 5.337200 5.694505 10.226779
H 5.311860 10.205925 3.612094
H 5.369312 10.246824 10.238992
H 9.875576 1.089623 3.617531
H 9.844919 1.128085 10.198368
H 9.896088 5.665111 3.583897
H 9.891451 5.689549 10.240729
H 9.899825 10.209163 3.675879
H 9.906004 10.217656 10.242703
H 2.324589 2.607544 4.626102
H 2.261889 2.611701 11.223657
H 2.258196 7.189031 4.561557
H 2.242972 7.208484 11.196559
H 2.249582 11.684050 4.642610
H 2.270298 11.761980 11.135223
H 6.803279 2.625706 4.591312
H 6.867811 2.587759 11.179028
H 6.828941 7.162455 4.579663
H 6.823552 7.159327 11.217452
H 6.871320 11.679137 4.618373
H 6.821554 11.691308 11.211419
H 11.360249 2.668513 4.607442
H 11.411132 2.580817 11.165460
H 11.346402 7.206986 4.608128
H 11.325534 7.128916 11.168998
H 11.375546 11.767391 4.577909
H 11.415827 11.694698 11.151146
H 0.029227 0.332537 1.270316
H 0.027071 0.399994 7.933323
H 0.016057 4.947473 1.337226
H 0.029985 4.862529 7.927471
H -0.022670 9.464030 1.316127
H 0.042493 9.456524 7.906921
H 4.587863 0.371347 1.296346
H 4.564098 0.373148 7.904598
H 4.512867 4.949847 1.263510
H 4.534959 4.935666 7.865818
H 4.521598 9.434358 1.341826
H 4.538936 9.476391 7.844894
H 9.106416 0.390743 1.336635
H 9.126126 0.380262 7.887476
H 9.146999 4.863308 1.353166
H 9.081585 4.875098 7.921381
H 9.120483 9.476299 1.270200
H 9.084771 9.416757 7.913725
H 2.302229 1.953625 1.955023
H 2.297299 1.937170 8.607879
H 2.310236 6.427414 1.960960
H 2.231917 6.461934 8.565149
H 2.253750 11.001224 1.957047
H 2.314834 11.059787 8.579912
H 6.821427 1.931436 1.981407
H 6.850467 1.911977 8.611005
H 6.865028 6.469032 1.948453
H 6.778046 6.496873 8.526119
H 6.851747 11.022375 1.949473
H 6.804070 11.001396 8.547807
H 11.394296 1.927442 2.015759
H 11.329087 1.910925 8.535651
H 11.386117 6.459988 1.977383
H 11.325528 6.513752 8.583287
H 11.370943 10.998685 2.008661
H 11.397390 11.058178 8.594244
H -0.037641 4.184937 5.243917
H 0.041030 4.214809 11.883009
H -0.035790 8.728447 5.229772
H 0.033631 8.762256 11.888839
H 0.007568 13.269738 5.238776
H -0.049358 13.253056 11.835576
H 4.538923 4.225857 5.252166
H 4.557546 4.233771 11.812378
H 4.598642 8.783428 5.274501
H 4.597558 8.753994 11.806962
H 4.578859 13.265836 5.238000
H 4.504658 13.298690 11.868703
H 9.118179 4.190052 5.277332
H 9.080709 4.228084 11.899117
H 9.074617 8.751013 5.309980
H 9.105906 8.708347 11.895666
H 9.146184 13.282109 5.278919
H 9.066667 13.301655 11.900598
H 3.108796 1.175068 6.249365
H 3.014567 1.115772 12.775843
H 3.087293 5.697991 6.233244
H 3.064863 5.727320 12.782547
H 3.012637 10.254966 6.238885
H 3.072355 10.278323 12.869405
H 7.642096 1.131872 6.221620
H 7.648448 1.095705 12.795792
H 7.585494 5.666070 6.252555
H 7.660738 5.714115 12.777591
H 7.624198 10.235488 6.248776
H 7.616678 10.227626 12.863437
H 12.200055 1.131570 6.239441
H 12.137560 1.130916 12.830226
H 12.173945 5.650155 6.269768
H 12.157207 5.724779 12.813421
H 12.183190 10.238794 6.238822
H 12.182699 10.211232 12.782522
H 0.802488 3.438355 2.969832
H 0.800376 3.460005 9.535134
H 0.805961 7.935136 2.921543
H 0.753459 7.917287 9.544252
H 0.801739 12.556272 2.999315
H 0.809728 12.496478 9.557323
H 5.315105 3.381185 2.930932
H 5.316689 3.460416 9.526901
H 5.292176 8.009259 2.995864
H 5.361079 7.931711 9.530931
H 5.322299 12.506764 2.969756
H 5.378370 12.483199 9.563355
H 9.917013 3.419888 2.964679
H 9.861997 3.436245 9.512622
H 9.922220 7.938606 2.919243
H 9.842418 7.962748 9.579789
H 9.860269 12.529944 2.927371
H 9.924435 12.463350 9.560718
H 3.738365 1.099385 3.631446
H 3.738836 1.163870 10.181732
H 3.808430 5.655902 3.607064
H 3.808752 5.708348 10.197320
H 3.716696 10.187940 3.631814
H 3.736975 10.233351 10.224034
H 8.346493 1.175020 3.628012
H 8.278951 1.096462 10.164917
H 8.343644 5.651363 3.667425
H 8.281731 5.674156 10.224228
H 8.359918 10.281573 3.617215
H 8.308591 10.229090 10.194093
H 12.824173 1.117123 3.656794
H 12.828293 1.146297 10.185193
H 12.832562 5.677001 3.599096
H 12.815309 5.696437 10.180257
H 12.861254 10.208739 3.630101
H 12.851520 10.251366 10.239749
H 1.526167 3.400155 0.323585
H 1.498152 3.389336 6.920749
H 1.479282 7.953872 0.308232
H 1.483375 7.969000 6.878047
H 1.473461 12.473572 0.322506
H 1.467714 12.509856 6.944523
H 6.059853 3.404441 0.368963
H 6.072436 3.446617 6.906033
H 6.049586 7.919176 0.360412
H 6.043683 7.954943 6.960556
H 5.996085 12.478787 0.310906
H 5.991329 12.478931 6.873959
H 10.562267 3.422663 0.314093
H 10.560789 3.378602 6.923419
H 10.638588 7.953918 0.365213
H 10.626164 7.929527 6.963923
H 10.548794 12.531331 0.383726
H 10.553066 12.516308 6.943006
H 0.026133 2.611330 5.280176
H -0.045700 2.601799 11.880890
H -0.034920 7.205206 5.283545
H -0.002417 7.211497 11.824171
H 0.029993 11.683089 5.282526
H 0.049678 11.717309 11.864629
H 4.505674 2.638434 5.295169
H 4.506501 2.593832 11.855426
H 4.580810 7.154426 5.227637
H 4.575360 7.143561 11.901612
H 4.581719 11.742095 5.226816
H 4.564272 11.747208 11.846708
H 9.148061 2.616763 5.256008
H 9.089963 2.632510 11.882504
H 9.131503 7.224194 5.226841
H 9.076978 7.213401 11.816583
H 9.085041 11.727404 5.229511
H 9.055969 11.723646 11.827947
H 2.236781 0.330068 1.957579
H 2.259343 0.304434 8.612147
H 2.237983 4.918051 1.974645
H 2.242507 4.903837 8.522853
H 2.238683 9.440483 1.949813
H 2.256623 9.411829 8.584214
H 6.793327 0.304824 1.957435
H 6.779157 0.312246 8.583612
H 6.844820 4.862129 2.005198
H 6.852603 4.891037 8.525046
H 6.793077 9.436909 2.020775
H 6.843315 9.497741 8.514218
H 11.401108 0.394670 2.024722
H 11.398170 0.340266 8.555922
H 11.331723 4.928931 1.954079
H 11.343869 4.910633 8.605481
H 11.356974 9.489484 2.000428
H 11.373662 9.447856 8.563537
