220
VASP_Comment=structure cutoff_factor=1.20000000 nneightol=1.20000000 Lattice="0.00000000       3.94800000     -11.15400000       0.00000000       3.94800000      11.15400000      31.58400000       0.00000000       0.00000000" Properties=species:S:1:pos:R:3:Z:I:1
La              7.91231100      7.89028651      0.01721151      57
La             15.79107175      7.89482919      0.00011439      57
La             23.69290681      7.89447634      0.00013487      57
La              4.19959450      3.80591531     -7.43673870      57
La             11.84115153      3.94708720     -7.43608012      57
La             19.73871313      3.94685881     -7.43619681      57
La             27.61685168      3.94353441     -7.45902763      57
La              7.83875900      3.95055701      3.71684576      57
La             15.79036614      3.94687930      3.71796057      57
La             23.68480317      3.94703689      3.71708148      57
La             31.41419054      3.90862559      3.67717207      57
La              4.20876064      3.86646990      7.26321809      57
La             11.84432933      3.94681524      7.43581940      57
La             19.73872750      3.94685875      7.43615864      57
La             27.61582538      3.94369534      7.45704257      57
La              7.92297682      3.94157832     -3.73371762      57
La             15.79108757      3.94682726     -3.71807841      57
La             23.68418556      3.94707270     -3.71721372      57
La             31.33119620      3.90555396     -3.67589285      57
La              4.20627219      3.87046987      0.18029133      57
La             11.84393839      3.94684835      0.00027376      57
La             19.73911878      3.94682309      0.00003468      57
La             27.61635943      3.93311056      0.00229252      57
La             11.83909319      3.94952366      3.71786513      57
La             19.74092825      3.94917081      3.71788561      57
La             27.61968900      3.95371349      3.70078849      57
La             31.32323936      4.02953010      7.60878191      57
La              7.91617462      3.95230466      7.41495743      57
La             15.79327250      3.94914125      7.43584136      57
La             23.68767067      3.94918476      7.43618060      57
La              4.20080380      3.99044604     -3.76010715      57
La             11.84781444      3.94892730     -3.71878628      57
La             19.74091243      3.94917274     -3.71792159      57
La             27.60902318      3.95442168     -3.70228238      57
La             31.33240550      4.09008469      0.00073870      57
La              7.91514832      3.95246559      0.02302763      57
La             15.79328687      3.94914119      0.00019681      57
La             23.69084847      3.94891280      0.00008012      57
La              4.11780946      0.03937441      0.04082793      57
La             11.84719683      0.00096311      0.00091852      57
La             19.74163386      0.00112070      0.00003943      57
La             27.69324100      7.89344299      0.00115424      57
La             31.32572781      4.02553013     -7.61629133      57
La              7.91564057      3.96288944     -7.43829252      57
La             15.79288122      3.94917691     -7.43603468      57
La             23.68806161      3.94915165     -7.43627376      57
Al              9.87140289      1.97583892      1.86254464      13
Al             17.76600000      1.97400000      1.85900000      13
Al             25.66059711      1.97216108      1.85545536      13
Al              5.85776181      2.03467554      5.54472175      13
Al             13.81797823      1.97424439      5.57683595      13
Al             21.71393445      1.97400702      5.57694190      13
Al             29.63424671      1.98047944      5.58267382      13
Al              9.86896449      5.92049643      5.57353701      13
Al             17.76597068      1.97400901     -5.57701074      13
Al             25.66303398      5.92191540      5.57631897      13
Al              5.89775329      1.96752056     -1.86467382      13
Al             13.81806555      1.97399298     -1.85894190      13
Al             21.71402177      1.97375561     -1.85883595      13
Al             29.67423819      1.91332446     -1.82672175      13
Al              9.86896602      5.92208460     -1.85831897      13
Al             17.76602932      5.92199099     -1.85898926      13
Al             25.66303551      5.92350357     -1.85553701      13
Al              5.82863063      5.85971741      1.88634220      13
Al             13.81802207      5.92176578      1.85914674      13
Al             21.71397793      5.92223422      1.85885326      13
Al             29.70336937      5.98428259      1.83165780      13
Al              5.82352004      5.85446820      5.55406044      13
Al             13.81804578      5.92175403      5.57683291      13
Al             21.71394811      5.92196145      5.57703524      13
Al             29.63260003      5.91743566      5.57314705      13
Al              9.86894517      1.97403977     -1.85931749      13
Al             17.76601998      1.97400997     -1.85898643      13
Al             25.66097340      1.97212595     -1.85531346      13
Al              5.89939997      5.92656434     -1.85514705      13
Al             13.81805189      5.92203855     -1.85903524      13
Al             21.71395422      5.92224597     -1.85883291      13
Al             29.70847996      5.98953180     -1.83606044      13
Al              9.86916163      5.92052279      1.86224358      13
Al             17.76600000      5.92200000      1.85900000      13
Al             25.66283837      5.92347721      1.85575642      13
Al              5.86026002      2.02922664      1.89284578      13
Al             13.81796329      1.97423110      1.85915680      13
Al             21.71403671      1.97376890      1.85884320      13
Al             29.67173998      1.91877336      1.82515422      13
Al              9.87102660      1.97587405      5.57331346      13
Al             17.76598002      5.92199003     -5.57701357      13
Al             25.66305483      5.92196023     -5.57668251      13
O               3.94881273      6.11603346      1.93131645       8
O              11.84408401      5.92200129      2.06849226       8
O              19.74005649      5.92195152      2.07021832       8
O              27.64019109      5.91322889      2.07141300       8
O               0.02916311      1.96303183     -5.34942661       8
O               7.89195130      1.98367207     -5.36288430       8
O              15.79194353      1.97404560     -5.36573615       8
O              23.68743181      1.97396385     -5.36517014       8
O               3.93960450      5.82916122     -5.22910020       8
O              11.84335573      5.92216305     -5.36443412       8
O              19.73997211      5.92200006     -5.36581373       8
O              27.64234910      5.92101128     -5.36214433       8
O               0.01142240      5.72874099     -1.79088164       8
O               7.88932020      5.92128999     -1.64606314       8
O              15.79202983      5.92200164     -1.64787254       8
O              23.68780487      5.92200902     -1.64958652       8
O               3.91736607      1.99440193     -1.63932411       8
O              11.84462709      1.97400322     -1.64747074       8
O              19.73998790      1.97404793     -1.64802952       8
O              27.64138428      1.97842036     -1.65115669       8
O              -0.00293490      2.06303334      2.20260655       8
O               7.89085297      1.97060920      2.06701980       8
O              15.79201136      1.97394943      2.06998875       8
O              23.68870245      1.97384514      2.07133722       8
O               3.93657760      2.16725901     -5.64511836       8
O              11.84419513      5.92199098      5.36758652       8
O              19.73997017      5.92199836      5.36587254       8
O              27.64267980      5.92271001      5.36406314       8
O               0.00839550      2.06683878     -2.20689980       8
O               7.88965090      1.97498872     -2.07385567       8
O              15.79202789      1.97399994     -2.07018627       8
O              23.68864427      1.97383695     -2.07156588       8
O               3.91883689      5.93296817     -2.08657339       8
O              11.84456819      5.92203615     -2.07082986       8
O              19.74005647      5.92195440     -2.07026385       8
O              27.64004870      5.91232793     -2.07311570       8
O              31.58318727      5.72796654      1.78668355       8
O               7.89180891      5.93077111      1.64658700       8
O              15.79194351      5.92204848      1.64778168       8
O              23.68791599      5.92199871      1.64950774       8
O               3.95093490      1.88496666      1.51539345       8
O              11.84329755      1.97415486      1.64666278       8
O              19.73998864      1.97405057      1.64801125       8
O              27.64114703      1.97739080      1.65098020       8
O               0.03063393      1.95359807      5.35732411       8
O               7.89061572      1.96957964      5.36915669       8
O              15.79201210      1.97395207      5.36602952       8
O              23.68737291      1.97399678      5.36547074       8
O               6.00165065      3.94460690      1.95685205       8
O              13.81801965      3.94798724      2.06957473       8
O              21.71379078      3.94799407      2.07011741       8
O              29.61493978      3.93955461      2.09197687       8
O               9.87071506      3.94720103      5.79248178       8
O              17.76603236      3.94799601      5.78804901       8
O              25.66141617      3.94798239      5.78648337       8
O               5.92253968      3.95615789     -5.34155344       8
O              13.81819371      3.94800847     -5.36581551       8
O              21.71407238      3.94798822     -5.36581630       8
O              29.63069131      3.94986368     -5.35452458       8
O               9.87048950      3.94806123     -1.65041347       8
O              17.76597468      3.94800137     -1.64804275       8
O              25.65980663      3.94699483     -1.65414676       8
O               5.89360876      3.94564439      9.51489007       8
O              13.81792130      3.94801356      9.50611128       8
O              21.71401035      3.94801308      9.50556318       8
O              29.53005425      3.95197678      9.39270105       8
O               9.87259627      3.94899488     -9.08982861       8
O              17.76599380      3.94800200     -9.08401504       8
O              25.66113024      3.94883708     -9.08008816       8
O               6.00194575      3.94402322      5.47929895       8
O              13.81798965      3.94798692      5.36643682       8
O              21.71407870      3.94798644      5.36588872       8
O              29.63839124      3.95035561      5.35710993       8
O               9.87058383      3.94801761      9.08551663       8
O              17.76596764      3.94800399      9.08395099       8
O              25.66128494      3.94879897      9.07951822       8
O               5.90130869      3.94613632     -2.08147542       8
O              13.81792762      3.94801178     -2.07018370       8
O              21.71380629      3.94799153     -2.07018449       8
O              29.60946032      3.93984211     -2.09444656       8
O               9.87086976      3.94716292      1.64408816       8
O              17.76600620      3.94799800      1.64801504       8
O              25.65940373      3.94700512      1.65382861       8
O               5.91706022      3.95644539     -9.52797687       8
O              13.81820922      3.94800593     -9.50611741       8
O              21.71398035      3.94801276     -9.50557473       8
O              29.53034935      3.95139310     -9.39285205       8
O               9.87219337      3.94900517     -5.78185324       8
O              17.76602532      3.94799863     -5.78795725       8
O              25.66151050      3.94793877     -5.78558653       8
O               9.65141742      1.75588359      0.00255798       8
O              17.54769386      1.75571637     -0.00000394       8
O              25.44102583      1.75688201      0.00011013       8
O               5.75709027      1.63561542      3.71369463       8
O              13.59946914      1.75516194      3.71800948       8
O              21.49589179      1.75575484      3.71799534       8
O              29.40702241      1.73963578      3.70140135       8
O               9.64607981      5.69731465      3.71784103       8
O              17.54772602      5.70367666      3.71800340       8
O              25.44597354      5.70254908      3.71643004       8
O               5.70328817      1.74278882     -3.72077823       8
O              13.59976900      1.75596473     -3.71796654       8
O              21.49593969      1.75576972     -3.71799259       8
O              29.40919801      1.74636681     -3.70342295       8
O               9.65170037      5.70413762     -3.72035172       8
O              17.54774278      5.70372711     -3.71799953       8
O              25.44647082      5.70240996     -3.71650895       8
O               5.69726565      5.68383139      0.00578454       8
O              13.59973511      5.70389503     -0.00003460       8
O              21.49547100      5.70356626     -0.00000423       8
O              29.36801603      5.63593656      0.00337174       8
O              10.09097417      2.19111799      3.71788987       8
O              17.98430614      2.19228363      3.71800394       8
O              25.88058258      2.19211641      3.71544202       8
O               6.12280199      6.14963319     -3.73257705       8
O              14.03606031      6.14023028     -3.71800741       8
O              21.93223100      6.14003527     -3.71803346       8
O              29.82871183      6.15321118     -3.71522177       8
O              10.08552918      2.19359004     -3.71949105       8
O              17.98425722      2.19227289     -3.71800047       8
O              25.88029963      2.19186238     -3.71564828       8
O               6.12497759      2.20836422      0.01659865       8
O              14.03610821      2.19224516      0.00000466       8
O              21.93253086      2.19283806     -0.00000948       8
O              29.77490973      2.31238458      0.00430537       8
O              10.08602646      6.14145092      0.00156996       8
O              17.98427398      6.14032334     -0.00000340       8
O              25.88592019      6.14668535      0.00015897       8
O               6.16398397      6.20806344      3.71462826       8
O              14.03652900      6.14043374      3.71800423       8
O              21.93226489      6.14010497      3.71803460       8
O              29.83473435      6.16016861      3.71221546       8
