160
cutoff_factor=1.20000000 nneightol=1.20000000 Lattice="5.42883523       0.00000000       0.00000000       0.00000000       5.42883523       0.00000000       0.00000000       0.00000000     1085.7670466" Properties=species:S:1:pos:R:3:Z:I:1
Si               0.00000000      0.00000000      0.00000000       14
Si               2.71441762      2.71441762      0.00000000       14
Si               2.71441762      0.00000000      2.71441762       14
Si               0.00000000      2.71441762      2.71441762       14
Si               1.35720881      1.35720881      1.35720881       14
Si               4.07162642      4.07162642      1.35720881       14
Si               4.07162642      1.35720881      4.07162642       14
Si               1.35720881      4.07162642      4.07162642       14
Si               0.00000000      0.00000000      5.42883523       14
Si               2.71441762      2.71441762      5.42883523       14
Si               2.71441762      0.00000000      8.14325285       14
Si               0.00000000      2.71441762      8.14325285       14
Si               1.35720881      1.35720881      6.78604404       14
Si               4.07162642      4.07162642      6.78604404       14
Si               4.07162642      1.35720881      9.50046166       14
Si               1.35720881      4.07162642      9.50046166       14
Si               0.00000000      0.00000000     10.85767047       14
Si               2.71441762      2.71441762     10.85767047       14
Si               2.71441762      0.00000000     13.57208808       14
Si               0.00000000      2.71441762     13.57208808       14
Si               1.35720881      1.35720881     12.21487927       14
Si               4.07162642      4.07162642     12.21487927       14
Si               4.07162642      1.35720881     14.92929689       14
Si               1.35720881      4.07162642     14.92929689       14
Si               0.00000000      0.00000000     16.28650570       14
Si               2.71441762      2.71441762     16.28650570       14
Si               2.71441762      0.00000000     19.00092332       14
Si               0.00000000      2.71441762     19.00092332       14
Si               1.35720881      1.35720881     17.64371451       14
Si               4.07162642      4.07162642     17.64371451       14
Si               4.07162642      1.35720881     20.35813212       14
Si               1.35720881      4.07162642     20.35813212       14
Si               0.00000000      0.00000000     21.71534093       14
Si               2.71441762      2.71441762     21.71534093       14
Si               2.71441762      0.00000000     24.42975855       14
Si               0.00000000      2.71441762     24.42975855       14
Si               1.35720881      1.35720881     23.07254974       14
Si               4.07162642      4.07162642     23.07254974       14
Si               4.07162642      1.35720881     25.78696736       14
Si               1.35720881      4.07162642     25.78696736       14
Si               0.00000000      0.00000000     27.14417617       14
Si               2.71441762      2.71441762     27.14417617       14
Si               2.71441762      0.00000000     29.85859378       14
Si               0.00000000      2.71441762     29.85859378       14
Si               1.35720881      1.35720881     28.50138497       14
Si               4.07162642      4.07162642     28.50138497       14
Si               4.07162642      1.35720881     31.21580259       14
Si               1.35720881      4.07162642     31.21580259       14
Si               0.00000000      0.00000000     32.57301140       14
Si               2.71441762      2.71441762     32.57301140       14
Si               2.71441762      0.00000000     35.28742902       14
Si               0.00000000      2.71441762     35.28742902       14
Si               1.35720881      1.35720881     33.93022021       14
Si               4.07162642      4.07162642     33.93022021       14
Si               4.07162642      1.35720881     36.64463782       14
Si               1.35720881      4.07162642     36.64463782       14
Si               0.00000000      0.00000000     38.00184663       14
Si               2.71441762      2.71441762     38.00184663       14
Si               2.71441762      0.00000000     40.71626425       14
Si               0.00000000      2.71441762     40.71626425       14
Si               1.35720881      1.35720881     39.35905544       14
Si               4.07162642      4.07162642     39.35905544       14
Si               4.07162642      1.35720881     42.07347306       14
Si               1.35720881      4.07162642     42.07347306       14
Si               0.00000000      0.00000000     43.43068187       14
Si               2.71441762      2.71441762     43.43068187       14
Si               2.71441762      0.00000000     46.14509948       14
Si               0.00000000      2.71441762     46.14509948       14
Si               1.35720881      1.35720881     44.78789067       14
Si               4.07162642      4.07162642     44.78789067       14
Si               4.07162642      1.35720881     47.50230829       14
Si               1.35720881      4.07162642     47.50230829       14
Si               0.00000000      0.00000000     48.85951710       14
Si               2.71441762      2.71441762     48.85951710       14
Si               2.71441762      0.00000000     51.57393472       14
Si               0.00000000      2.71441762     51.57393472       14
Si               1.35720881      1.35720881     50.21672591       14
Si               4.07162642      4.07162642     50.21672591       14
Si               4.07162642      1.35720881     52.93114352       14
Si               1.35720881      4.07162642     52.93114352       14
Si 0.00000000 0.00000000 53.7884 14
Si 2.71441762 2.71441762 53.7884 14
Si 2.71441762 0.00000000 56.5028 14
Si 0.00000000 2.71441762 56.5028 14
Si 1.35720881 1.35720881 55.1456 14
Si 4.07162642 4.07162642 55.1456 14
Si 4.07162642 1.35720881 57.86 14
Si 1.35720881 4.07162642 57.86 14
Si 0.00000000 0.00000000 59.2172 14
Si 2.71441762 2.71441762 59.2172 14
Si 2.71441762 0.00000000 61.9316 14
Si 0.00000000 2.71441762 61.9316 14
Si 1.35720881 1.35720881 60.5744 14
Si 4.07162642 4.07162642 60.5744 14
Si 4.07162642 1.35720881 63.2888 14
Si 1.35720881 4.07162642 63.2888 14
Si 0.00000000 0.00000000 64.646 14
Si 2.71441762 2.71441762 64.646 14
Si 2.71441762 0.00000000 67.3604 14
Si 0.00000000 2.71441762 67.3604 14
Si 1.35720881 1.35720881 66.0032 14
Si 4.07162642 4.07162642 66.0032 14
Si 4.07162642 1.35720881 68.7176 14
Si 1.35720881 4.07162642 68.7176 14
Si 0.00000000 0.00000000 70.0749 14
Si 2.71441762 2.71441762 70.0749 14
Si 2.71441762 0.00000000 72.7893 14
Si 0.00000000 2.71441762 72.7893 14
Si 1.35720881 1.35720881 71.4321 14
Si 4.07162642 4.07162642 71.4321 14
Si 4.07162642 1.35720881 74.1465 14
Si 1.35720881 4.07162642 74.1465 14
Si 0.00000000 0.00000000 75.5037 14
Si 2.71441762 2.71441762 75.5037 14
Si 2.71441762 0.00000000 78.2181 14
Si 0.00000000 2.71441762 78.2181 14
Si 1.35720881 1.35720881 76.8609 14
Si 4.07162642 4.07162642 76.8609 14
Si 4.07162642 1.35720881 79.5753 14
Si 1.35720881 4.07162642 79.5753 14
Si 0.00000000 0.00000000 80.9325 14
Si 2.71441762 2.71441762 80.9325 14
Si 2.71441762 0.00000000 83.6469 14
Si 0.00000000 2.71441762 83.6469 14
Si 1.35720881 1.35720881 82.2897 14
Si 4.07162642 4.07162642 82.2897 14
Si 4.07162642 1.35720881 85.0042 14
Si 1.35720881 4.07162642 85.0042 14
Si 0.00000000 0.00000000 86.3614 14
Si 2.71441762 2.71441762 86.3614 14
Si 2.71441762 0.00000000 89.0758 14
Si 0.00000000 2.71441762 89.0758 14
Si 1.35720881 1.35720881 87.7186 14
Si 4.07162642 4.07162642 87.7186 14
Si 4.07162642 1.35720881 90.433 14
Si 1.35720881 4.07162642 90.433 14
Si 0.00000000 0.00000000 91.7902 14
Si 2.71441762 2.71441762 91.7902 14
Si 2.71441762 0.00000000 94.5046 14
Si 0.00000000 2.71441762 94.5046 14
Si 1.35720881 1.35720881 93.1474 14
Si 4.07162642 4.07162642 93.1474 14
Si 4.07162642 1.35720881 95.8618 14
Si 1.35720881 4.07162642 95.8618 14
Si 0.00000000 0.00000000 97.219 14
Si 2.71441762 2.71441762 97.219 14
Si 2.71441762 0.00000000 99.9335 14
Si 0.00000000 2.71441762 99.9335 14
Si 1.35720881 1.35720881 98.5762 14
Si 4.07162642 4.07162642 98.5762 14
Si 4.07162642 1.35720881 101.291 14
Si 1.35720881 4.07162642 101.291 14
Si 0.00000000 0.00000000 102.648 14
Si 2.71441762 2.71441762 102.648 14
Si 2.71441762 0.00000000 105.362 14
Si 0.00000000 2.71441762 105.362 14
Si 1.35720881 1.35720881 104.005 14
Si 4.07162642 4.07162642 104.005 14
Si 4.07162642 1.35720881 106.719 14
Si 1.35720881 4.07162642 106.719 14
