# LAMMPS convergence test - exp preconditioner

units metal
atom_style atomic
atom_modify map yes

read_data tests/validation/lammps_exp_atoms.data

pair_style eam
pair_coeff * * /home/eng/essswb/lammps/lammps-22Jul2025/potentials/Cu_u3.eam

neighbor 2.0 bin
neigh_modify delay 0 every 1 check yes

plugin load /home/eng/essswb/lammps-precon-opt-fix/build/preconlbfgsplugin.so

fix opt all precon_lbfgs 0.01 precon exp r_cut -1.0 mu -1.0 A 3.0 c_stab 0.1 memory 100 maxstep 0.04 c1 0.23

thermo 1
thermo_style custom step pe fmax fnorm

minimize 0.0 0.01 50 10000

unfix opt
